# Solution for model MBA_ILP_BASE
# Objective value = 0.822857142857143
x_0_0_1_1 0
x_0_1_0_1 1
x_0_1_2_1 0
x_0_1_5_2 0
x_0_1_6_2 0
x_0_2_1_1 1
x_0_2_3_1 0
x_0_3_2_1 0
x_0_4_5_2 0
x_0_5_1_2 0
x_0_5_4_2 0
x_0_6_1_2 0
x_1_0_1_1 0
x_1_1_0_1 0
x_1_1_2_1 1
x_1_1_5_2 0
x_1_1_6_2 0
x_1_2_1_1 0
x_1_2_3_1 1
x_1_3_2_1 0
x_1_4_5_2 0
x_1_5_1_2 0
x_1_5_4_2 0
x_1_6_1_2 1
w_1_0 1
w_1_1 1
w_1_2 1
w_1_3 1
w_2_0 0
w_2_1 1
w_2_2 0
w_2_3 1
z_0_1 0
z_1_1 0
